Version identifier: 12.10.0.0 | 2019-11-26 | 843d4de
CPXPARAM_WorkMem                                 16384
CPXPARAM_MIP_Limits_TreeMemory                   24576
Tried aggregator 2 times.
Aggregator did 30 substitutions.
Reduced MIP has 103 rows, 120 columns, and 450 nonzeros.
Reduced MIP has 120 binaries, 0 generals, 0 SOSs, and 0 indicators.
Presolve time = 0,00 sec. (0,43 ticks)
Found incumbent of value 1923,000000 after 0,00 sec. (0,79 ticks)
Probing time = 0,00 sec. (0,15 ticks)
Tried aggregator 1 time.
Detecting symmetries...
MIP Presolve eliminated 27 rows and 0 columns.
MIP Presolve added 54 rows and 0 columns.
Reduced MIP has 130 rows, 120 columns, and 477 nonzeros.
Reduced MIP has 120 binaries, 0 generals, 0 SOSs, and 0 indicators.
Presolve time = 0,00 sec. (0,59 ticks)
Probing time = 0,00 sec. (0,15 ticks)
Clique table members: 310.
MIP emphasis: balance optimality and feasibility.
MIP search method: dynamic search.
Parallel mode: deterministic, using up to 16 threads.
Root relaxation solution time = 0,00 sec. (0,46 ticks)

        Nodes                                         Cuts/
   Node  Left     Objective  IInf  Best Integer    Best Bound    ItCnt     Gap

*     0+    0                         1923,0000        0,0000           100,00%
*     0+    0                         1432,0000        0,0000           100,00%
      0     0      641,0000   117     1432,0000      641,0000       51   55,24%
*     0+    0                         1345,0000      641,0000            52,34%
      0     0      668,6071   117     1345,0000      Cuts: 95       95   50,29%
      0     0      684,0264   117     1345,0000      Cuts: 76      127   49,14%
      0     0      686,2902   117     1345,0000      Cuts: 47      153   48,97%
      0     0      687,0378   117     1345,0000   ZeroHalf: 9      166   48,92%
      0     0      687,5942   117     1345,0000      Cuts: 24      175   48,88%
      0     0      838,2443   117     1345,0000      Cuts: 57      308   37,68%
      0     0      841,0047   117     1345,0000   ZeroHalf: 3      325   37,47%
      0     0      841,5225   117     1345,0000       Cuts: 3      339   37,43%
      0     0      841,7273   117     1345,0000      Cuts: 32      344   37,42%
      0     0      841,9762   117     1345,0000   ZeroHalf: 2      349   37,40%
      0     0      842,7871   117     1345,0000   ZeroHalf: 2      359   37,34%
      0     0      843,4323   117     1345,0000       Cuts: 3      371   37,29%
      0     0      843,7935   117     1345,0000   ZeroHalf: 1      377   37,26%
      0     0      843,8753   117     1345,0000       Cuts: 2      384   37,26%
      0     0      844,5675   117     1345,0000      Cuts: 23      397   37,21%
      0     0      846,1264   117     1345,0000   ZeroHalf: 3      410   37,09%
*     0+    0                         1322,0000      846,1264            36,00%
      0     0        cutoff           1322,0000     1322,0000      410    0,00%
Elapsed time = 0,12 sec. (51,69 ticks, tree = 0,01 MB, solutions = 4)

Clique cuts applied:  10
Cover cuts applied:  24
Flow cuts applied:  5
Mixed integer rounding cuts applied:  26
Zero-half cuts applied:  13
Lift and project cuts applied:  1
Gomory fractional cuts applied:  2

Root node processing (before b&c):
  Real time             =    0,12 sec. (51,70 ticks)
Parallel b&c, 16 threads:
  Real time             =    0,00 sec. (0,00 ticks)
  Sync time (average)   =    0,00 sec.
  Wait time (average)   =    0,00 sec.
                          ------------
Total (root+branch&cut) =    0,12 sec. (51,70 ticks)
